10	5
0	5	5	1	2	4	3
1	4	10	9	7	8
2	1	7
3	3	9	10	6
4	2	10	8
5	2	9	7
6	1	11
7	1	11
8	1	11
9	1	11
10	1	11
11	0
0	0	0	0	0	0	0
1	1	1	2	5	4	1
2	5	5	5	4	3	5
3	2	3	5	3	5	5
4	2	1	1	4	3	5
5	5	5	4	1	2	2
6	8	4	5	5	3	4
7	10	5	4	3	5	3
8	2	5	5	1	2	1
9	3	2	5	1	3	2
10	2	2	3	2	3	2
11	0	0	0	0	0	0
12	12	12	11	11
